Route 1: 0 74 33 29 77 16 48 80 0
Route 2: 0 73 95 41 87 51 68 38 2 81 0
Route 3: 0 8 45 94 13 17 23 84 4 34 55 57 79 0
Route 4: 0 36 31 91 100 93 75 47 62 99 82 0
Route 5: 0 98 43 83 86 63 90 54 21 0
Route 6: 0 50 1 22 30 85 88 92 67 26 53 65 0
Route 7: 0 20 97 6 9 76 56 0
Route 8: 0 10 64 25 3 44 24 37 32 52 5 0
Route 9: 0 12 11 28 96 66 69 18 72 42 19 0
Route 10: 0 60 89 49 15 14 35 40 70 0
Route 11: 0 59 7 39 58 27 71 46 78 0
Route 12: 0 61 0
